Route #1: 8 33 42 16 24 15 19
Route #2: 3 44 25 18 35 12 11
Route #3: 36 5 39 10 7 22 32
Route #4: 38 37 2 30 4 13
Route #5: 23
Route #6: 9 17 45 6 43 26 14
Route #7: 21 29 31 34 40 1 27 20 41 28
Cost 914
Time 0.054649
